Integer_Transition_Systems/From_AProVE_2014/RSA.jar-obl-17.smt2
(declare-sort Loc 0)
(declare-const f1341_0_get_Return Loc)
(declare-const f4216_0_inverse_LE Loc)
(declare-const f1_0_main_Load Loc)
(declare-const f4216_0_inverse_LE' Loc)
(declare-const f4925_0_get_Return Loc)
(declare-const f5552_0_inverse_LE Loc)
(declare-const f4924_0_get_Return Loc)
(declare-const f5552_0_inverse_LE' Loc)
(declare-const f6369_0_main_GE Loc)
(declare-const f6369_0_main_GE' Loc)
(declare-const f6553_0_encode_Return Loc)
(declare-const f6750_0_main_InvokeMethod Loc)
(declare-const f4357_0_get_InvokeMethod Loc)
(declare-const f4698_0_get_InvokeMethod Loc)
(declare-const f4790_0_random_NE Loc)
(declare-const f4790_0_random_NE' Loc)
(declare-const f5336_0_get_GT Loc)
(declare-const f2555_0_generateUntil_GE Loc)
(declare-const f2202_0_generateNextPrime_NONNULL Loc)
(declare-const f2380_0_generateNextPrime_GE Loc)
(declare-const f2954_0_generateNextPrime_GE Loc)
(declare-const f2954_0_generateNextPrime_GE' Loc)
(declare-const f7458_0_encode_NULL Loc)
(declare-const f7458_0_encode_NULL' Loc)
(declare-const f7128_0_power_GT Loc)
(declare-const f8014_0_decode_NULL Loc)
(declare-const f8014_0_decode_NULL' Loc)
(declare-const __init Loc)
(assert (distinct f1341_0_get_Return f4216_0_inverse_LE f1_0_main_Load f4216_0_inverse_LE' f4925_0_get_Return f5552_0_inverse_LE f4924_0_get_Return f5552_0_inverse_LE' f6369_0_main_GE f6369_0_main_GE' f6553_0_encode_Return f6750_0_main_InvokeMethod f4357_0_get_InvokeMethod f4698_0_get_InvokeMethod f4790_0_random_NE f4790_0_random_NE' f5336_0_get_GT f2555_0_generateUntil_GE f2202_0_generateNextPrime_NONNULL f2380_0_generateNextPrime_GE f2954_0_generateNextPrime_GE f2954_0_generateNextPrime_GE' f7458_0_encode_NULL f7458_0_encode_NULL' f7128_0_power_GT f8014_0_decode_NULL f8014_0_decode_NULL' __init ))

(define-fun cfg_init ( (pc Loc) (src Loc) (rel Bool) ) Bool
  (and (= pc src) rel))

(define-fun cfg_trans2 ( (pc Loc) (src Loc)
                         (pc1 Loc) (dst Loc)
                         (rel Bool) ) Bool
  (and (= pc src) (= pc1 dst) rel))

(define-fun cfg_trans3 ( (pc Loc) (exit Loc)
                         (pc1 Loc) (call Loc)
                         (pc2 Loc) (return Loc)
                         (rel Bool) ) Bool
  (and (= pc exit) (= pc1 call) (= pc2 return) rel))

(define-fun init_main ( (pc Loc) (arg1 Int) (arg2 Int) (arg3 Int) (arg4 Int) (arg5 Int) (arg6 Int) (arg7 Int) (arg8 Int) (arg9 Int) (arg10 Int) (arg11 Int) (arg12 Int) (arg13 Int) (arg14 Int) (arg15 Int) (arg16 Int) (arg17 Int) (arg18 Int) (arg19 Int) ) Bool
  (cfg_init pc __init true))

(define-fun next_main (
                 (pc Loc) (arg1 Int) (arg2 Int) (arg3 Int) (arg4 Int) (arg5 Int) (arg6 Int) (arg7 Int) (arg8 Int) (arg9 Int) (arg10 Int) (arg11 Int) (arg12 Int) (arg13 Int) (arg14 Int) (arg15 Int) (arg16 Int) (arg17 Int) (arg18 Int) (arg19 Int)
                 (pc1 Loc) (arg1P Int) (arg2P Int) (arg3P Int) (arg4P Int) (arg5P Int) (arg6P Int) (arg7P Int) (arg8P Int) (arg9P Int) (arg10P Int) (arg11P Int) (arg12P Int) (arg13P Int) (arg14P Int) (arg15P Int) (arg16P Int) (arg17P Int) (arg18P Int) (arg19P Int)
             ) Bool
  (or
    (cfg_trans2 pc f1341_0_get_Return pc1 f4216_0_inverse_LE (and (and (and (and (and (and (and (and (and (and (and (and (> arg1P 144) (= arg1 arg2P)) (= 1 arg3P)) (= 0 arg4P)) (= 120 arg5P)) (= arg2 arg6P)) (= arg3 arg7P)) (= 11 arg8P)) (= 13 arg9P)) (= 120 arg10P)) (= arg1 arg11P)) (= 0 arg12P)) (= 143 arg13P)))
    (cfg_trans2 pc f1_0_main_Load pc1 f4216_0_inverse_LE (and (and (and (and (and (and (and (and (and (and (> arg1 0) (> arg1P 144)) (= 1 arg3P)) (= 0 arg4P)) (= 120 arg5P)) (= 11 arg8P)) (= 13 arg9P)) (= 120 arg10P)) (= arg2P arg11P)) (= 0 arg12P)) (= 143 arg13P)))
    (cfg_trans2 pc f4216_0_inverse_LE pc1 f4216_0_inverse_LE' (exists ((x17 Int)) (and (and (and (and (and (and (and (and (and (and (and (and (and (and (and (and (and (and (and (and (and (and (> arg5 0) (<= x17 arg1)) (> arg1 144)) (> x17 144)) (<= (+ arg11 2) arg1)) (= 11 arg8)) (= 13 arg9)) (= 120 arg10)) (= 0 arg12)) (= 143 arg13)) (= arg1 arg1P)) (= arg2 arg2P)) (= arg3 arg3P)) (= arg4 arg4P)) (= arg5 arg5P)) (= arg6 arg6P)) (= arg7 arg7P)) (= 11 arg8P)) (= 13 arg9P)) (= 120 arg10P)) (= arg11 arg11P)) (= 0 arg12P)) (= 143 arg13P))))
    (cfg_trans2 pc f4216_0_inverse_LE' pc1 f4216_0_inverse_LE (exists ((x364 Int) (x372 Int)) (and (and (and (and (and (and (and (and (and (and (and (and (and (and (and (and (and (and (and (and (and (and (and (and (and (> arg5 0) (<= arg1P arg1)) (> arg1 144)) (> arg1P 144)) (<= (+ arg11 2) arg1)) (>= (- arg2 (* arg5 x364)) 0)) (> arg5 (- arg2 (* arg5 x364)))) (> arg5 (- arg2 (* arg5 x372)))) (>= (- arg2 (* arg5 x372)) 0)) (= 11 arg8)) (= 13 arg9)) (= 120 arg10)) (= 0 arg12)) (= 143 arg13)) (= arg5 arg2P)) (= arg4 arg3P)) (= (- arg3 (* x364 arg4)) arg4P)) (= (- arg2 (* arg5 x372)) arg5P)) (= arg6 arg6P)) (= arg7 arg7P)) (= 11 arg8P)) (= 13 arg9P)) (= 120 arg10P)) (= arg11 arg11P)) (= 0 arg12P)) (= 143 arg13P))))
    (cfg_trans2 pc f4925_0_get_Return pc1 f5552_0_inverse_LE (and (and (and (and (and (and (and (and (and (and (and (and (and (and (and (and (and (and (and (and (and (and (and (and (and (and (<= arg1P arg1) (> arg1 144)) (> arg1P 144)) (> arg2P 116)) (<= (+ arg6 2) arg1)) (<= (+ arg7 2) arg1)) (= 11 arg3)) (= 13 arg4)) (= 120 arg5)) (= 143 arg8)) (= arg2 arg3P)) (= 1 arg4P)) (= 0 arg5P)) (= 88 arg6P)) (= 0 arg7P)) (= 11 arg8P)) (= 13 arg9P)) (= 120 arg10P)) (= arg6 arg11P)) (= arg7 arg12P)) (= 143 arg13P)) (= 23 arg14P)) (= 5 arg15P)) (= 88 arg16P)) (= arg2 arg17P)) (= 0 arg18P)) (= 115 arg19P)))
    (cfg_trans2 pc f4216_0_inverse_LE pc1 f5552_0_inverse_LE (and (and (and (and (and (and (and (and (and (and (and (and (and (and (and (and (and (and (and (and (and (and (and (and (and (and (< arg3 0) (< arg5 1)) (> arg1 144)) (> arg1P 144)) (> arg2P 116)) (<= (+ arg11 2) arg1)) (= 11 arg8)) (= 13 arg9)) (= 120 arg10)) (= 0 arg12)) (= 143 arg13)) (= 1 arg4P)) (= 0 arg5P)) (= 88 arg6P)) (= arg6 arg7P)) (= 11 arg8P)) (= 13 arg9P)) (= 120 arg10P)) (= arg11 arg11P)) (= (+ arg3 120) arg12P)) (= 143 arg13P)) (= 23 arg14P)) (= 5 arg15P)) (= 88 arg16P)) (= arg3P arg17P)) (= 0 arg18P)) (= 115 arg19P)))
    (cfg_trans2 pc f4924_0_get_Return pc1 f5552_0_inverse_LE (and (and (and (and (and (and (and (and (and (and (and (and (and (and (and (and (and (and (and (and (and (and (and (and (and (and (<= arg1P arg1) (> arg1 144)) (> arg1P 144)) (> arg2P 116)) (<= (+ arg6 2) arg1)) (<= (+ arg7 2) arg1)) (= 11 arg3)) (= 13 arg4)) (= 120 arg5)) (= 143 arg8)) (= arg2 arg3P)) (= 1 arg4P)) (= 0 arg5P)) (= 88 arg6P)) (= 0 arg7P)) (= 11 arg8P)) (= 13 arg9P)) (= 120 arg10P)) (= arg6 arg11P)) (= arg7 arg12P)) (= 143 arg13P)) (= 23 arg14P)) (= 5 arg15P)) (= 88 arg16P)) (= arg2 arg17P)) (= 0 arg18P)) (= 115 arg19P)))
    (cfg_trans2 pc f4216_0_inverse_LE pc1 f5552_0_inverse_LE (and (and (and (and (and (and (and (and (and (and (and (and (and (and (and (and (and (and (and (and (and (and (and (and (and (and (< arg5 1) (> arg3 (- 1))) (> arg1 144)) (> arg1P 144)) (> arg2P 116)) (<= (+ arg11 2) arg1)) (= 11 arg8)) (= 13 arg9)) (= 120 arg10)) (= 0 arg12)) (= 143 arg13)) (= 1 arg4P)) (= 0 arg5P)) (= 88 arg6P)) (= arg6 arg7P)) (= 11 arg8P)) (= 13 arg9P)) (= 120 arg10P)) (= arg11 arg11P)) (= arg3 arg12P)) (= 143 arg13P)) (= 23 arg14P)) (= 5 arg15P)) (= 88 arg16P)) (= arg3P arg17P)) (= 0 arg18P)) (= 115 arg19P)))
    (cfg_trans2 pc f5552_0_inverse_LE pc1 f5552_0_inverse_LE' (exists ((x488 Int) (x489 Int)) (and (and (and (and (and (and (and (and (and (and (and (and (and (and (and (and (and (and (and (and (and (and (and (and (and (and (and (and (and (and (and (and (and (and (and (and (and (> arg6 0) (<= x488 arg1)) (<= x489 arg2)) (> arg1 144)) (> arg2 116)) (> x488 144)) (> x489 116)) (<= (+ arg11 2) arg1)) (<= (+ arg12 2) arg1)) (<= (+ arg17 2) arg2)) (= 11 arg8)) (= 13 arg9)) (= 120 arg10)) (= 143 arg13)) (= 23 arg14)) (= 5 arg15)) (= 88 arg16)) (= 0 arg18)) (= 115 arg19)) (= arg1 arg1P)) (= arg2 arg2P)) (= arg3 arg3P)) (= arg4 arg4P)) (= arg5 arg5P)) (= arg6 arg6P)) (= arg7 arg7P)) (= 11 arg8P)) (= 13 arg9P)) (= 120 arg10P)) (= arg11 arg11P)) (= arg12 arg12P)) (= 143 arg13P)) (= 23 arg14P)) (= 5 arg15P)) (= 88 arg16P)) (= arg17 arg17P)) (= 0 arg18P)) (= 115 arg19P))))
    (cfg_trans2 pc f5552_0_inverse_LE' pc1 f5552_0_inverse_LE (exists ((x511 Int) (x512 Int)) (and (and (and (and (and (and (and (and (and (and (and (and (and (and (and (and (and (and (and (and (and (and (and (and (and (and (and (and (and (and (and (and (and (and (and (and (and (and (and (> arg6 0) (<= arg1P arg1)) (<= arg2P arg2)) (> arg1 144)) (> arg2 116)) (> arg1P 144)) (> arg2P 116)) (<= (+ arg11 2) arg1)) (<= (+ arg12 2) arg1)) (<= (+ arg17 2) arg2)) (>= (- arg3 (* arg6 x511)) 0)) (> arg6 (- arg3 (* arg6 x511)))) (> arg6 (- arg3 (* arg6 x512)))) (>= (- arg3 (* arg6 x512)) 0)) (= 11 arg8)) (= 13 arg9)) (= 120 arg10)) (= 143 arg13)) (= 23 arg14)) (= 5 arg15)) (= 88 arg16)) (= 0 arg18)) (= 115 arg19)) (= arg6 arg3P)) (= arg5 arg4P)) (= (- arg4 (* x511 arg5)) arg5P)) (= (- arg3 (* arg6 x512)) arg6P)) (= arg7 arg7P)) (= 11 arg8P)) (= 13 arg9P)) (= 120 arg10P)) (= arg11 arg11P)) (= arg12 arg12P)) (= 143 arg13P)) (= 23 arg14P)) (= 5 arg15P)) (= 88 arg16P)) (= arg17 arg17P)) (= 0 arg18P)) (= 115 arg19P))))
    (cfg_trans2 pc f5552_0_inverse_LE pc1 f6369_0_main_GE (and (and (and (and (and (and (and (and (and (and (and (and (and (and (and (and (and (and (and (and (and (and (and (and (and (and (and (and (and (> arg7 (- 1)) (< arg6 1)) (> arg4 (- 1))) (<= (+ arg2P 145) arg1)) (<= (+ arg2P 117) arg2)) (> arg1 144)) (> arg2 116)) (> arg1P 116)) (> arg2P (- 1))) (<= (+ arg11 2) arg1)) (<= (+ arg12 2) arg1)) (<= (+ arg17 2) arg2)) (= 11 arg8)) (= 13 arg9)) (= 120 arg10)) (= 143 arg13)) (= 23 arg14)) (= 5 arg15)) (= 88 arg16)) (= 0 arg18)) (= 115 arg19)) (= 0 arg3P)) (= (* 5 arg7) arg4P)) (= arg7 arg5P)) (= 23 arg6P)) (= 5 arg7P)) (= 88 arg8P)) (= arg17 arg9P)) (= arg4 arg10P)) (= 115 arg11P)))
    (cfg_trans2 pc f5552_0_inverse_LE pc1 f6369_0_main_GE (and (and (and (and (and (and (and (and (and (and (and (and (and (and (and (and (and (and (and (and (and (and (and (and (and (and (and (and (and (< arg4 0) (< arg6 1)) (> arg7 (- 1))) (<= (+ arg2P 145) arg1)) (<= (+ arg2P 117) arg2)) (> arg1 144)) (> arg2 116)) (> arg1P 116)) (> arg2P (- 1))) (<= (+ arg11 2) arg1)) (<= (+ arg12 2) arg1)) (<= (+ arg17 2) arg2)) (= 11 arg8)) (= 13 arg9)) (= 120 arg10)) (= 143 arg13)) (= 23 arg14)) (= 5 arg15)) (= 88 arg16)) (= 0 arg18)) (= 115 arg19)) (= 0 arg3P)) (= (* 5 arg7) arg4P)) (= arg7 arg5P)) (= 23 arg6P)) (= 5 arg7P)) (= 88 arg8P)) (= arg17 arg9P)) (= (+ arg4 88) arg10P)) (= 115 arg11P)))
    (cfg_trans2 pc f6369_0_main_GE pc1 f6369_0_main_GE' (exists ((x566 Int) (x567 Int) (x568 Int)) (and (and (and (and (and (and (and (and (and (and (and (and (and (and (and (and (and (and (and (and (and (and (and (and (and (and (> arg5 (- 1)) (> arg4 arg3)) (= (- arg3 (* 2 x566)) 0)) (<= x567 arg1)) (<= (+ x568 18) arg1)) (<= (- x568 99) arg2)) (> arg1 116)) (> arg2 (- 1))) (> x567 116)) (> x568 98)) (<= (+ arg9 2) arg1)) (<= (+ arg10 2) arg1)) (= 23 arg6)) (= 5 arg7)) (= 88 arg8)) (= 115 arg11)) (= arg1 arg1P)) (= arg2 arg2P)) (= arg3 arg3P)) (= arg4 arg4P)) (= arg5 arg5P)) (= 23 arg6P)) (= 5 arg7P)) (= 88 arg8P)) (= arg9 arg9P)) (= arg10 arg10P)) (= 115 arg11P))))
    (cfg_trans2 pc f6369_0_main_GE' pc1 f6369_0_main_GE (exists ((x582 Int)) (and (and (and (and (and (and (and (and (and (and (and (and (and (and (and (and (and (and (and (and (and (and (and (and (and (and (> arg5 (- 1)) (> arg4 arg3)) (= (- arg3 (* 2 x582)) 0)) (<= arg1P arg1)) (<= (+ arg2P 18) arg1)) (<= (- arg2P 99) arg2)) (> arg1 116)) (> arg2 (- 1))) (> arg1P 116)) (> arg2P 98)) (<= (+ arg9 2) arg1)) (<= (+ arg10 2) arg1)) (< (- arg3 (* 2 x582)) 2)) (>= (- arg3 (* 2 x582)) 0)) (= 23 arg6)) (= 5 arg7)) (= 88 arg8)) (= 115 arg11)) (= (+ arg3 1) arg3P)) (= (* 5 arg5) arg4P)) (= arg5 arg5P)) (= 23 arg6P)) (= 5 arg7P)) (= 88 arg8P)) (= arg9 arg9P)) (= arg10 arg10P)) (= 115 arg11P))))
    (cfg_trans2 pc f6369_0_main_GE pc1 f6369_0_main_GE' (exists ((x594 Int) (x595 Int) (x596 Int) (x597 Int)) (and (and (and (and (and (and (and (and (and (and (and (and (and (and (and (and (and (and (and (and (and (and (and (and (and (and (and (> (- arg3 (* 3 x594)) 0) (> arg4 arg3)) (> arg5 (- 1))) (= (- arg3 (* 2 x595)) 1)) (<= x596 arg1)) (<= (+ x597 16) arg1)) (<= (- x597 101) arg2)) (> arg1 116)) (> arg2 (- 1))) (> x596 116)) (> x597 100)) (<= (+ arg9 2) arg1)) (<= (+ arg10 2) arg1)) (= 23 arg6)) (= 5 arg7)) (= 88 arg8)) (= 115 arg11)) (= arg1 arg1P)) (= arg2 arg2P)) (= arg3 arg3P)) (= arg4 arg4P)) (= arg5 arg5P)) (= 23 arg6P)) (= 5 arg7P)) (= 88 arg8P)) (= arg9 arg9P)) (= arg10 arg10P)) (= 115 arg11P))))
    (cfg_trans2 pc f6369_0_main_GE' pc1 f6369_0_main_GE (exists ((x611 Int) (x612 Int)) (and (and (and (and (and (and (and (and (and (and (and (and (and (and (and (and (and (and (and (and (and (and (and (and (and (and (and (and (> (- arg3 (* 3 x611)) 0) (> arg4 arg3)) (> arg5 (- 1))) (= (- arg3 (* 2 x612)) 1)) (<= arg1P arg1)) (<= (+ arg2P 16) arg1)) (<= (- arg2P 101) arg2)) (> arg1 116)) (> arg2 (- 1))) (> arg1P 116)) (> arg2P 100)) (<= (+ arg9 2) arg1)) (<= (+ arg10 2) arg1)) (< (- arg3 (* 3 x611)) 3)) (< (- arg3 (* 2 x612)) 2)) (>= (- arg3 (* 2 x612)) 0)) (= 23 arg6)) (= 5 arg7)) (= 88 arg8)) (= 115 arg11)) (= (+ arg3 1) arg3P)) (= (* 5 arg5) arg4P)) (= arg5 arg5P)) (= 23 arg6P)) (= 5 arg7P)) (= 88 arg8P)) (= arg9 arg9P)) (= arg10 arg10P)) (= 115 arg11P))))
    (cfg_trans2 pc f6369_0_main_GE pc1 f6369_0_main_GE' (exists ((x624 Int) (x625 Int) (x626 Int) (x627 Int)) (and (and (and (and (and (and (and (and (and (and (and (and (and (and (and (and (and (and (and (and (and (and (and (and (and (and (and (= (- arg3 (* 2 x624)) 1) (> arg4 arg3)) (> arg5 (- 1))) (= (- arg3 (* 3 x625)) 0)) (<= x626 arg1)) (<= (+ x627 17) arg1)) (<= (- x627 100) arg2)) (> arg1 116)) (> arg2 (- 1))) (> x626 116)) (> x627 99)) (<= (+ arg9 2) arg1)) (<= (+ arg10 2) arg1)) (= 23 arg6)) (= 5 arg7)) (= 88 arg8)) (= 115 arg11)) (= arg1 arg1P)) (= arg2 arg2P)) (= arg3 arg3P)) (= arg4 arg4P)) (= arg5 arg5P)) (= 23 arg6P)) (= 5 arg7P)) (= 88 arg8P)) (= arg9 arg9P)) (= arg10 arg10P)) (= 115 arg11P))))
    (cfg_trans2 pc f6369_0_main_GE' pc1 f6369_0_main_GE (exists ((x641 Int) (x642 Int)) (and (and (and (and (and (and (and (and (and (and (and (and (and (and (and (and (and (and (and (and (and (and (and (and (and (and (and (and (and (= (- arg3 (* 2 x641)) 1) (> arg4 arg3)) (> arg5 (- 1))) (= (- arg3 (* 3 x642)) 0)) (<= arg1P arg1)) (<= (+ arg2P 17) arg1)) (<= (- arg2P 100) arg2)) (> arg1 116)) (> arg2 (- 1))) (> arg1P 116)) (> arg2P 99)) (<= (+ arg9 2) arg1)) (<= (+ arg10 2) arg1)) (>= (- arg3 (* 2 x641)) 0)) (< (- arg3 (* 2 x641)) 2)) (< (- arg3 (* 3 x642)) 3)) (>= (- arg3 (* 3 x642)) 0)) (= 23 arg6)) (= 5 arg7)) (= 88 arg8)) (= 115 arg11)) (= (+ arg3 1) arg3P)) (= (* 5 arg5) arg4P)) (= arg5 arg5P)) (= 23 arg6P)) (= 5 arg7P)) (= 88 arg8P)) (= arg9 arg9P)) (= arg10 arg10P)) (= 115 arg11P))))
    (cfg_trans2 pc f6369_0_main_GE pc1 f6369_0_main_GE' (exists ((x654 Int) (x655 Int) (x656 Int)) (and (and (and (and (and (and (and (and (and (and (and (and (and (and (and (and (and (and (and (and (and (and (and (and (and (> arg5 (- 1)) (> arg4 arg3)) (= (- arg3 (* 2 x654)) 0)) (<= x655 arg1)) (<= (- x656 98) arg2)) (> arg1 116)) (> arg2 0)) (> x655 116)) (> x656 98)) (<= (+ arg9 2) arg1)) (<= (+ arg10 2) arg1)) (= 23 arg6)) (= 5 arg7)) (= 88 arg8)) (= 115 arg11)) (= arg1 arg1P)) (= arg2 arg2P)) (= arg3 arg3P)) (= arg4 arg4P)) (= arg5 arg5P)) (= 23 arg6P)) (= 5 arg7P)) (= 88 arg8P)) (= arg9 arg9P)) (= arg10 arg10P)) (= 115 arg11P))))
    (cfg_trans2 pc f6369_0_main_GE' pc1 f6369_0_main_GE (exists ((x670 Int)) (and (and (and (and (and (and (and (and (and (and (and (and (and (and (and (and (and (and (and (and (and (and (and (and (and (> arg5 (- 1)) (> arg4 arg3)) (= (- arg3 (* 2 x670)) 0)) (<= arg1P arg1)) (<= (- arg2P 98) arg2)) (> arg1 116)) (> arg2 0)) (> arg1P 116)) (> arg2P 98)) (<= (+ arg9 2) arg1)) (<= (+ arg10 2) arg1)) (< (- arg3 (* 2 x670)) 2)) (>= (- arg3 (* 2 x670)) 0)) (= 23 arg6)) (= 5 arg7)) (= 88 arg8)) (= 115 arg11)) (= (+ arg3 1) arg3P)) (= (* 5 arg5) arg4P)) (= arg5 arg5P)) (= 23 arg6P)) (= 5 arg7P)) (= 88 arg8P)) (= arg9 arg9P)) (= arg10 arg10P)) (= 115 arg11P))))
    (cfg_trans2 pc f6369_0_main_GE pc1 f6369_0_main_GE' (exists ((x682 Int) (x683 Int) (x684 Int) (x685 Int)) (and (and (and (and (and (and (and (and (and (and (and (and (and (and (and (and (and (and (and (and (and (and (and (and (and (and (> (- arg3 (* 3 x682)) 0) (> arg4 arg3)) (> arg5 (- 1))) (= (- arg3 (* 2 x683)) 1)) (<= x684 arg1)) (<= (- x685 100) arg2)) (> arg1 116)) (> arg2 0)) (> x684 116)) (> x685 100)) (<= (+ arg9 2) arg1)) (<= (+ arg10 2) arg1)) (= 23 arg6)) (= 5 arg7)) (= 88 arg8)) (= 115 arg11)) (= arg1 arg1P)) (= arg2 arg2P)) (= arg3 arg3P)) (= arg4 arg4P)) (= arg5 arg5P)) (= 23 arg6P)) (= 5 arg7P)) (= 88 arg8P)) (= arg9 arg9P)) (= arg10 arg10P)) (= 115 arg11P))))
    (cfg_trans2 pc f6369_0_main_GE' pc1 f6369_0_main_GE (exists ((x699 Int) (x700 Int)) (and (and (and (and (and (and (and (and (and (and (and (and (and (and (and (and (and (and (and (and (and (and (and (and (and (and (and (> (- arg3 (* 3 x699)) 0) (> arg4 arg3)) (> arg5 (- 1))) (= (- arg3 (* 2 x700)) 1)) (<= arg1P arg1)) (<= (- arg2P 100) arg2)) (> arg1 116)) (> arg2 0)) (> arg1P 116)) (> arg2P 100)) (<= (+ arg9 2) arg1)) (<= (+ arg10 2) arg1)) (< (- arg3 (* 3 x699)) 3)) (< (- arg3 (* 2 x700)) 2)) (>= (- arg3 (* 2 x700)) 0)) (= 23 arg6)) (= 5 arg7)) (= 88 arg8)) (= 115 arg11)) (= (+ arg3 1) arg3P)) (= (* 5 arg5) arg4P)) (= arg5 arg5P)) (= 23 arg6P)) (= 5 arg7P)) (= 88 arg8P)) (= arg9 arg9P)) (= arg10 arg10P)) (= 115 arg11P))))
    (cfg_trans2 pc f6369_0_main_GE pc1 f6369_0_main_GE' (exists ((x712 Int) (x713 Int) (x714 Int) (x715 Int)) (and (and (and (and (and (and (and (and (and (and (and (and (and (and (and (and (and (and (and (and (and (and (and (and (and (and (= (- arg3 (* 2 x712)) 1) (> arg4 arg3)) (> arg5 (- 1))) (= (- arg3 (* 3 x713)) 0)) (<= x714 arg1)) (<= (- x715 99) arg2)) (> arg1 116)) (> arg2 0)) (> x714 116)) (> x715 99)) (<= (+ arg9 2) arg1)) (<= (+ arg10 2) arg1)) (= 23 arg6)) (= 5 arg7)) (= 88 arg8)) (= 115 arg11)) (= arg1 arg1P)) (= arg2 arg2P)) (= arg3 arg3P)) (= arg4 arg4P)) (= arg5 arg5P)) (= 23 arg6P)) (= 5 arg7P)) (= 88 arg8P)) (= arg9 arg9P)) (= arg10 arg10P)) (= 115 arg11P))))
    (cfg_trans2 pc f6369_0_main_GE' pc1 f6369_0_main_GE (exists ((x729 Int) (x730 Int)) (and (and (and (and (and (and (and (and (and (and (and (and (and (and (and (and (and (and (and (and (and (and (and (and (and (and (and (and (= (- arg3 (* 2 x729)) 1) (> arg4 arg3)) (> arg5 (- 1))) (= (- arg3 (* 3 x730)) 0)) (<= arg1P arg1)) (<= (- arg2P 99) arg2)) (> arg1 116)) (> arg2 0)) (> arg1P 116)) (> arg2P 99)) (<= (+ arg9 2) arg1)) (<= (+ arg10 2) arg1)) (>= (- arg3 (* 2 x729)) 0)) (< (- arg3 (* 2 x729)) 2)) (< (- arg3 (* 3 x730)) 3)) (>= (- arg3 (* 3 x730)) 0)) (= 23 arg6)) (= 5 arg7)) (= 88 arg8)) (= 115 arg11)) (= (+ arg3 1) arg3P)) (= (* 5 arg5) arg4P)) (= arg5 arg5P)) (= 23 arg6P)) (= 5 arg7P)) (= 88 arg8P)) (= arg9 arg9P)) (= arg10 arg10P)) (= 115 arg11P))))
    (cfg_trans2 pc f6553_0_encode_Return pc1 f6750_0_main_InvokeMethod (and (and (and (and (and (and (and (and (and (and (and (and (and (and (and (and (and (and (and (and (and (<= arg1P arg1) (<= (+ arg1P 116) arg2)) (<= arg2P arg2)) (<= (+ arg3P 1) arg1)) (<= (+ arg3P 117) arg2)) (> arg1 0)) (> arg2 116)) (> arg1P 0)) (> arg2P 116)) (> arg3P (- 1))) (<= (+ arg6 2) arg2)) (<= (+ arg7 2) arg2)) (= 23 arg3)) (= 5 arg4)) (= 88 arg5)) (= 115 arg8)) (= 23 arg4P)) (= 5 arg5P)) (= 88 arg6P)) (= arg6 arg7P)) (= arg7 arg8P)) (= 115 arg9P)))
    (cfg_trans2 pc f6369_0_main_GE pc1 f6750_0_main_InvokeMethod (and (and (and (and (and (and (and (and (and (and (and (and (and (and (and (and (and (and (and (and (<= (+ arg1P 116) arg1) (<= arg4 arg3)) (<= (- arg1P 1) arg2)) (<= arg2P arg1)) (> arg1 116)) (> arg2 (- 1))) (> arg1P 0)) (> arg2P 116)) (> arg3P (- 1))) (<= (+ arg9 2) arg1)) (<= (+ arg10 2) arg1)) (= 23 arg6)) (= 5 arg7)) (= 88 arg8)) (= 115 arg11)) (= 23 arg4P)) (= 5 arg5P)) (= 88 arg6P)) (= arg9 arg7P)) (= arg10 arg8P)) (= 115 arg9P)))
    (cfg_trans2 pc f1_0_main_Load pc1 f4357_0_get_InvokeMethod (exists ((x163 Int)) (and (and (and (and (and (> arg1 0) (<= (+ x163 1) arg1)) (= 120 arg1P)) (= 120 arg2P)) (= 120 arg3P)) (= 0 arg4P))))
    (cfg_trans2 pc f4216_0_inverse_LE pc1 f4357_0_get_InvokeMethod (and (and (and (and (and (and (and (and (and (and (and (and (< arg5 1) (> arg3 (- 1))) (> arg1 144)) (<= (+ arg11 2) arg1)) (= 11 arg8)) (= 13 arg9)) (= 120 arg10)) (= 0 arg12)) (= 143 arg13)) (= 88 arg1P)) (= 88 arg2P)) (= 88 arg3P)) (= arg7 arg4P)))
    (cfg_trans2 pc f4216_0_inverse_LE pc1 f4357_0_get_InvokeMethod (and (and (and (and (and (and (and (and (and (and (and (and (< arg3 0) (< arg5 1)) (> arg1 144)) (<= (+ arg11 2) arg1)) (= 11 arg8)) (= 13 arg9)) (= 120 arg10)) (= 0 arg12)) (= 143 arg13)) (= 88 arg1P)) (= 88 arg2P)) (= 88 arg3P)) (= arg7 arg4P)))
    (cfg_trans2 pc f4357_0_get_InvokeMethod pc1 f4698_0_get_InvokeMethod (and (and (and (and (and (and (and (and (and (> arg2 1) (> arg1 1)) (> arg6P (- 1))) (> arg3P (- 1))) (= arg2 arg3)) (= arg2 arg1P)) (= 0 arg2P)) (= 0 arg4P)) (= 0 arg5P)) (= arg4 arg7P)))
    (cfg_trans2 pc f4357_0_get_InvokeMethod pc1 f4698_0_get_InvokeMethod (and (and (and (and (and (and (and (and (and (> arg2 1) (> arg1 1)) (> arg6P 0)) (> arg3P 0)) (= arg2 arg3)) (= arg2 arg1P)) (= 0 arg2P)) (= 0 arg4P)) (= 0 arg5P)) (= arg4 arg7P)))
    (cfg_trans2 pc f4698_0_get_InvokeMethod pc1 f4790_0_random_NE (exists ((x192 Int)) (and (and (and (and (and (and (and (and (and (and (and (and (<= arg4P arg4) (> arg2 (- 1))) (> x192 (- 1))) (<= arg1P arg6)) (> arg3 (- 1))) (> arg6 0)) (> arg1P 0)) (<= (+ arg4P 2) arg6)) (<= (+ arg6P 2) arg6)) (<= (+ arg5P 2) arg6)) (= arg4 arg5)) (= (- arg4P arg2) arg2P)) (= arg7 arg3P))))
    (cfg_trans2 pc f4698_0_get_InvokeMethod pc1 f4698_0_get_InvokeMethod (exists ((x213 Int) (x212 Int)) (and (and (and (and (and (and (and (and (and (and (and (and (and (>= x213 arg1) (> x212 arg4)) (<= (+ arg3P 1) arg3)) (<= arg6P arg6)) (> arg3 0)) (> arg6 0)) (> arg3P (- 1))) (> arg6P 0)) (= arg4 arg5)) (= arg1 arg1P)) (= (+ arg2 1) arg2P)) (= (+ arg4 1) arg4P)) (= (+ arg4 1) arg5P)) (= arg7 arg7P))))
    (cfg_trans2 pc f4698_0_get_InvokeMethod pc1 f4790_0_random_NE (exists ((x225 Int) (x214 Int)) (and (and (and (and (and (and (and (and (and (and (and (and (and (and (> arg4P 0) (> arg2 (- 1))) (< x225 arg1)) (> arg4P arg4)) (> x214 (- 1))) (<= arg1P arg6)) (> arg3 0)) (> arg6 0)) (> arg1P 0)) (<= (+ arg4P 2) arg6)) (<= (+ arg6P 2) arg6)) (<= (+ arg5P 2) arg6)) (= arg4 arg5)) (= (- arg4P arg2) arg2P)) (= arg7 arg3P))))
    (cfg_trans2 pc f4790_0_random_NE pc1 f4790_0_random_NE' (exists ((x232 Int)) (and (and (and (and (and (and (and (and (and (and (and (<= x232 arg1) (> arg1 0)) (> x232 0)) (<= (+ arg4 2) arg1)) (<= (+ arg6 2) arg1)) (<= (+ arg5 2) arg1)) (= arg1 arg1P)) (= arg2 arg2P)) (= arg3 arg3P)) (= arg4 arg4P)) (= arg5 arg5P)) (= arg6 arg6P))))
    (cfg_trans2 pc f4790_0_random_NE' pc1 f5336_0_get_GT (exists ((x778 Int)) (and (and (and (and (and (and (and (and (and (and (<= arg1P arg1) (> arg1 0)) (> arg1P 0)) (<= (+ arg4 2) arg1)) (<= (+ arg5 2) arg1)) (<= (+ arg6 2) arg1)) (> arg2 (- 11 (* arg2 x778)))) (<= (* arg2 x778) 11)) (= 0 arg2P)) (= (- arg4 (- 11 (* arg2 x778))) arg3P)) (= 0 arg4P))))
    (cfg_trans2 pc f4790_0_random_NE pc1 f4790_0_random_NE' (exists ((x241 Int) (x233 Int) (x240 Int)) (and (and (and (and (and (and (and (and (and (and (and (and (and (and (> x241 (- 1)) (> x233 0)) (> arg3 (- 1))) (<= x240 arg1)) (> arg1 0)) (> x240 0)) (<= (+ arg4 2) arg1)) (<= (+ arg6 2) arg1)) (<= (+ arg5 2) arg1)) (= arg1 arg1P)) (= arg2 arg2P)) (= arg3 arg3P)) (= arg4 arg4P)) (= arg5 arg5P)) (= arg6 arg6P))))
    (cfg_trans2 pc f4790_0_random_NE' pc1 f5336_0_get_GT (exists ((x786 Int) (x787 Int)) (and (and (and (and (and (and (and (and (and (and (and (and (> x786 (- 1)) (> arg4P 0)) (> arg3 (- 1))) (<= arg1P arg1)) (> arg1 0)) (> arg1P 0)) (<= (+ arg4 2) arg1)) (<= (+ arg5 2) arg1)) (<= (+ arg6 2) arg1)) (< (- x786 (* arg2 x787)) arg2)) (>= (- x786 (* arg2 x787)) 0)) (= 0 arg2P)) (= (- arg4 (- x786 (* arg2 x787))) arg3P))))
    (cfg_trans2 pc f5336_0_get_GT pc1 f5336_0_get_GT (and (and (and (and (and (and (<= (+ arg1P 1) arg1) (>= arg3 arg2)) (> arg1 0)) (> arg1P (- 1))) (= (+ arg2 1) arg2P)) (= arg3 arg3P)) (= arg4 arg4P)))
    (cfg_trans2 pc f4357_0_get_InvokeMethod pc1 f2555_0_generateUntil_GE (and (and (and (and (and (> arg2 1) (> arg1P (- 1))) (> arg1 1)) (= arg2 arg3)) (= 0 arg2P)) (= arg2 arg3P)))
    (cfg_trans2 pc f2555_0_generateUntil_GE pc1 f2202_0_generateNextPrime_NONNULL (and (and (and (and (> arg3 arg2) (> arg3 1)) (<= arg1P arg1)) (> arg1 (- 1))) (> arg1P (- 1))))
    (cfg_trans2 pc f2555_0_generateUntil_GE pc1 f2202_0_generateNextPrime_NONNULL (exists ((x260 Int)) (and (and (and (and (and (> arg3 arg2) (> arg3 1)) (< x260 arg3)) (<= arg1P arg1)) (> arg1 0)) (> arg1P 0))))
    (cfg_trans2 pc f2555_0_generateUntil_GE pc1 f2555_0_generateUntil_GE (and (and (and (and (and (and (> arg3 arg2) (> arg3 1)) (<= (- arg1P 6) arg1)) (> arg1 (- 1))) (> arg1P 5)) (= (+ arg2 1) arg2P)) (= arg3 arg3P)))
    (cfg_trans2 pc f2555_0_generateUntil_GE pc1 f2555_0_generateUntil_GE (exists ((x269 Int)) (and (and (and (and (and (and (and (> arg3 arg2) (> arg3 1)) (< x269 arg3)) (<= (- arg1P 5) arg1)) (> arg1 0)) (> arg1P 5)) (= (+ arg2 1) arg2P)) (= arg3 arg3P))))
    (cfg_trans2 pc f2555_0_generateUntil_GE pc1 f2555_0_generateUntil_GE (exists ((x274 Int)) (and (and (and (and (and (and (> arg3 arg2) (> arg3 1)) (< x274 arg3)) (> arg1 0)) (> arg1P 2)) (= (+ arg2 1) arg2P)) (= arg3 arg3P))))
    (cfg_trans2 pc f2202_0_generateNextPrime_NONNULL pc1 f2380_0_generateNextPrime_GE (and (and (and (and (and (and (and (and (and (<= arg1P arg1) (> arg1 0)) (> arg1P 0)) (<= (+ arg6P 2) arg1)) (<= (+ arg8P 2) arg1)) (<= (+ arg7P 2) arg1)) (= (+ arg7P 1) arg2P)) (= (+ arg7P 1) arg3P)) (= (+ arg7P 1) arg4P)) (= (+ (* 2 arg7P) 2) arg5P)))
    (cfg_trans2 pc f2380_0_generateNextPrime_GE pc1 f2954_0_generateNextPrime_GE (and (and (and (and (and (and (and (and (and (and (and (and (and (and (and (and (<= arg1P arg1) (> arg5 arg3)) (<= arg5P arg1)) (> arg1 0)) (> arg1P 0)) (> arg5P 0)) (<= (+ arg6 2) arg1)) (<= (+ arg8 2) arg1)) (<= (+ arg7 2) arg1)) (= arg3 arg4)) (= arg2 arg2P)) (= arg5 arg3P)) (= arg3 arg4P)) (= 0 arg6P)) (= arg6 arg7P)) (= arg7 arg8P)) (= arg8 arg9P)))
    (cfg_trans2 pc f2954_0_generateNextPrime_GE pc1 f2954_0_generateNextPrime_GE' (exists ((x798 Int) (x799 Int) (x800 Int)) (and (and (and (and (and (and (and (and (and (and (and (and (and (and (and (and (and (> arg7 arg6) (= (- arg2 (* x798 x799)) 0)) (<= x800 arg1)) (> arg1 0)) (> arg5 0)) (> x800 0)) (<= (+ arg7 2) arg1)) (<= (+ arg8 2) arg1)) (<= (+ arg9 2) arg1)) (= arg1 arg1P)) (= arg2 arg2P)) (= arg3 arg3P)) (= arg4 arg4P)) (= arg5 arg5P)) (= arg6 arg6P)) (= arg7 arg7P)) (= arg8 arg8P)) (= arg9 arg9P))))
    (cfg_trans2 pc f2954_0_generateNextPrime_GE' pc1 f2380_0_generateNextPrime_GE (exists ((x811 Int) (x812 Int)) (and (and (and (and (and (and (and (and (and (and (and (and (and (and (and (and (and (> arg7 arg6) (= (- arg2 (* x811 x812)) 0)) (<= arg1P arg1)) (> arg1 0)) (> arg5 0)) (> arg1P 0)) (<= (+ arg7 2) arg1)) (<= (+ arg8 2) arg1)) (<= (+ arg9 2) arg1)) (> x811 (- arg2 (* x811 x812)))) (>= (- arg2 (* x811 x812)) 0)) (= (+ arg2 1) arg2P)) (= (+ arg4 1) arg3P)) (= (+ arg4 1) arg4P)) (= arg3 arg5P)) (= arg7 arg6P)) (= arg8 arg7P)) (= arg9 arg8P))))
    (cfg_trans2 pc f2954_0_generateNextPrime_GE pc1 f2954_0_generateNextPrime_GE' (exists ((x822 Int) (x823 Int) (x824 Int) (x825 Int)) (and (and (and (and (and (and (and (and (and (and (and (and (and (and (and (and (and (and (and (> arg7 arg6) (< (- arg2 (* x822 x823)) 0)) (<= x824 arg1)) (<= (+ x825 1) arg5)) (> arg1 0)) (> arg5 0)) (> x824 0)) (> x825 (- 1))) (<= (+ arg7 2) arg1)) (<= (+ arg8 2) arg1)) (<= (+ arg9 2) arg1)) (= arg1 arg1P)) (= arg2 arg2P)) (= arg3 arg3P)) (= arg4 arg4P)) (= arg5 arg5P)) (= arg6 arg6P)) (= arg7 arg7P)) (= arg8 arg8P)) (= arg9 arg9P))))
    (cfg_trans2 pc f2954_0_generateNextPrime_GE pc1 f2954_0_generateNextPrime_GE' (exists ((x835 Int) (x836 Int) (x837 Int) (x838 Int)) (and (and (and (and (and (and (and (and (and (and (and (and (and (and (and (and (and (and (and (> arg7 arg6) (> (- arg2 (* x835 x836)) 0)) (<= x837 arg1)) (<= (+ x838 1) arg5)) (> arg1 0)) (> arg5 0)) (> x837 0)) (> x838 (- 1))) (<= (+ arg7 2) arg1)) (<= (+ arg8 2) arg1)) (<= (+ arg9 2) arg1)) (= arg1 arg1P)) (= arg2 arg2P)) (= arg3 arg3P)) (= arg4 arg4P)) (= arg5 arg5P)) (= arg6 arg6P)) (= arg7 arg7P)) (= arg8 arg8P)) (= arg9 arg9P))))
    (cfg_trans2 pc f2954_0_generateNextPrime_GE' pc1 f2954_0_generateNextPrime_GE (exists ((x850 Int) (x851 Int)) (and (and (and (and (and (and (and (and (and (and (and (and (and (and (and (and (and (and (> (- arg2 (* x850 x851)) 0) (> arg7 arg6)) (<= arg1P arg1)) (<= (+ arg5P 1) arg5)) (> arg1 0)) (> arg5 0)) (> arg1P 0)) (> arg5P (- 1))) (<= (+ arg7 2) arg1)) (<= (+ arg8 2) arg1)) (<= (+ arg9 2) arg1)) (> x850 (- arg2 (* x850 x851)))) (= arg2 arg2P)) (= arg3 arg3P)) (= arg4 arg4P)) (= (+ arg6 1) arg6P)) (= arg7 arg7P)) (= arg8 arg8P)) (= arg9 arg9P))))
    (cfg_trans2 pc f6369_0_main_GE pc1 f7458_0_encode_NULL (and (and (and (and (and (and (and (and (and (and (and (and (and (and (and (and (and (<= (+ arg2P 117) arg1) (<= arg4 arg3)) (<= arg2P arg2)) (<= arg3P arg2)) (<= arg5P arg2)) (> arg1 116)) (> arg2 (- 1))) (> arg2P (- 1))) (> arg3P (- 1))) (> arg5P (- 1))) (<= (+ arg9 2) arg1)) (<= (+ arg10 2) arg1)) (= 23 arg6)) (= 5 arg7)) (= 88 arg8)) (= 115 arg11)) (= arg9 arg1P)) (= 0 arg4P)))
    (cfg_trans2 pc f7458_0_encode_NULL pc1 f7458_0_encode_NULL' (exists ((x331 Int) (x332 Int) (x329 Int) (x330 Int) (x328 Int)) (and (and (and (and (and (and (and (and (and (and (and (and (and (and (and (> x331 0) (> x331 arg4)) (< (- x332 32) x332)) (<= (+ x329 1) arg3)) (<= x330 arg5)) (> arg2 (- 1))) (> arg3 0)) (> arg5 0)) (> x328 4)) (> x329 (- 1))) (> x330 0)) (= arg1 arg1P)) (= arg2 arg2P)) (= arg3 arg3P)) (= arg4 arg4P)) (= arg5 arg5P))))
    (cfg_trans2 pc f7458_0_encode_NULL' pc1 f7458_0_encode_NULL (exists ((x874 Int) (x875 Int) (x876 Int)) (and (and (and (and (and (and (and (and (and (and (and (and (and (and (> x874 0) (> x874 arg4)) (< (- x875 32) x875)) (<= (+ arg3P 1) arg3)) (<= arg5P arg5)) (> arg2 (- 1))) (> arg3 0)) (> arg5 0)) (> arg2P 4)) (> arg3P (- 1))) (> arg5P 0)) (< (- (- x875 32) (* 10 x876)) 10)) (>= (- (- x875 32) (* 10 x876)) 0)) (= arg1 arg1P)) (= (+ arg4 1) arg4P))))
    (cfg_trans2 pc f7458_0_encode_NULL pc1 f7458_0_encode_NULL' (exists ((x343 Int) (x344 Int) (x346 Int) (x341 Int) (x342 Int) (x340 Int)) (and (and (and (and (and (and (and (and (and (and (and (and (and (and (and (and (> x343 0) (> x343 arg4)) (< (- x344 32) x344)) (< x346 (+ 1 x346))) (<= (+ x341 1) arg3)) (<= x342 arg5)) (> arg2 0)) (> arg3 0)) (> arg5 0)) (> x340 4)) (> x341 (- 1))) (> x342 0)) (= arg1 arg1P)) (= arg2 arg2P)) (= arg3 arg3P)) (= arg4 arg4P)) (= arg5 arg5P))))
    (cfg_trans2 pc f7458_0_encode_NULL' pc1 f7458_0_encode_NULL (exists ((x885 Int) (x886 Int) (x887 Int) (x888 Int)) (and (and (and (and (and (and (and (and (and (and (and (and (and (and (and (> x885 0) (> x885 arg4)) (< (- x886 32) x886)) (< x887 (+ 1 x887))) (<= (+ arg3P 1) arg3)) (<= arg5P arg5)) (> arg2 0)) (> arg3 0)) (> arg5 0)) (> arg2P 4)) (> arg3P (- 1))) (> arg5P 0)) (< (- (- x886 32) (* 10 x888)) 10)) (>= (- (- x886 32) (* 10 x888)) 0)) (= arg1 arg1P)) (= (+ arg4 1) arg4P))))
    (cfg_trans2 pc f7458_0_encode_NULL pc1 f7128_0_power_GT (exists ((x354 Int) (x353 Int)) (and (and (and (and (and (and (and (< (- x354 32) x354) (> x353 arg4)) (> x353 0)) (> arg2 (- 1))) (> arg3 0)) (> arg5 0)) (= 1 arg1P)) (= arg1 arg2P))))
    (cfg_trans2 pc f7458_0_encode_NULL pc1 f7458_0_encode_NULL' (exists ((x361 Int) (x362 Int)) (and (and (and (and (and (and (and (and (and (and (> x361 0) (> x361 arg4)) (< (- x362 32) x362)) (> arg2 (- 1))) (> arg3 0)) (> arg5 0)) (= arg1 arg1P)) (= arg2 arg2P)) (= arg3 arg3P)) (= arg4 arg4P)) (= arg5 arg5P))))
    (cfg_trans2 pc f7458_0_encode_NULL' pc1 f7128_0_power_GT (exists ((x894 Int) (x895 Int) (x896 Int)) (and (and (and (and (and (and (and (and (and (> x894 0) (> x894 arg4)) (< (- x895 32) x895)) (> arg2 (- 1))) (> arg3 0)) (> arg5 0)) (< (- (- x895 32) (* 10 x896)) 10)) (>= (- (- x895 32) (* 10 x896)) 0)) (= 1 arg1P)) (= arg1 arg2P))))
    (cfg_trans2 pc f7458_0_encode_NULL pc1 f7458_0_encode_NULL' (exists ((x370 Int) (x371 Int) (x373 Int)) (and (and (and (and (and (and (and (and (and (and (and (> x370 0) (> x370 arg4)) (< (- x371 32) x371)) (< x373 (+ 1 x373))) (> arg2 0)) (> arg3 0)) (> arg5 0)) (= arg1 arg1P)) (= arg2 arg2P)) (= arg3 arg3P)) (= arg4 arg4P)) (= arg5 arg5P))))
    (cfg_trans2 pc f7458_0_encode_NULL' pc1 f7128_0_power_GT (exists ((x902 Int) (x903 Int) (x904 Int) (x905 Int)) (and (and (and (and (and (and (and (and (and (and (> x902 0) (> x902 arg4)) (< (- x903 32) x903)) (< x904 (+ 1 x904))) (> arg2 0)) (> arg3 0)) (> arg5 0)) (< (- (- x903 32) (* 10 x905)) 10)) (>= (- (- x903 32) (* 10 x905)) 0)) (= 1 arg1P)) (= arg1 arg2P))))
    (cfg_trans2 pc f7128_0_power_GT pc1 f7128_0_power_GT (and (and (>= arg2 arg1) (= (+ arg1 1) arg1P)) (= arg2 arg2P)))
    (cfg_trans2 pc f6750_0_main_InvokeMethod pc1 f8014_0_decode_NULL (and (and (and (and (and (and (and (and (and (and (and (and (and (and (and (and (and (and (and (and (and (and (and (and (and (<= arg1P arg2) (<= (+ arg2P 1) arg1)) (<= (+ arg2P 117) arg2)) (<= arg2P arg3)) (<= arg3P arg3)) (<= arg5P arg3)) (> arg1 0)) (> arg2 116)) (> arg3 (- 1))) (> arg1P 116)) (> arg2P (- 1))) (> arg3P (- 1))) (> arg5P (- 1))) (<= (+ arg7 2) arg2)) (<= (+ arg8 2) arg2)) (= 23 arg4)) (= 5 arg5)) (= 88 arg6)) (= 115 arg9)) (= 0 arg4P)) (= 23 arg6P)) (= 5 arg7P)) (= 88 arg8P)) (= arg7 arg9P)) (= arg8 arg10P)) (= 115 arg11P)))
    (cfg_trans2 pc f8014_0_decode_NULL pc1 f8014_0_decode_NULL' (exists ((x930 Int)) (and (and (and (and (and (and (and (and (and (and (and (and (and (and (and (and (and (and (and (and (and (< arg4 x930) (> arg1 116)) (> arg2 (- 1))) (> arg3 2)) (> arg5 0)) (<= (+ arg9 2) arg1)) (<= (+ arg10 2) arg1)) (= 23 arg6)) (= 5 arg7)) (= 88 arg8)) (= 115 arg11)) (= arg1 arg1P)) (= arg2 arg2P)) (= arg3 arg3P)) (= arg4 arg4P)) (= arg5 arg5P)) (= 23 arg6P)) (= 5 arg7P)) (= 88 arg8P)) (= arg9 arg9P)) (= arg10 arg10P)) (= 115 arg11P))))
    (cfg_trans2 pc f8014_0_decode_NULL' pc1 f7128_0_power_GT (exists ((x942 Int) (x943 Int)) (and (and (and (and (and (and (and (and (and (and (and (and (and (and (< arg4 x942) (> arg1 116)) (> arg2 (- 1))) (> arg3 2)) (> arg5 0)) (<= (+ arg9 2) arg1)) (<= (+ arg10 2) arg1)) (< (- x943 (* 2 x942)) 2)) (>= (- x943 (* 2 x942)) 0)) (= 23 arg6)) (= 5 arg7)) (= 88 arg8)) (= 115 arg11)) (= 1 arg1P)) (= arg10 arg2P))))
    (cfg_trans2 pc f8014_0_decode_NULL pc1 f8014_0_decode_NULL' (exists ((x955 Int) (x956 Int) (x957 Int) (x958 Int) (x959 Int)) (and (and (and (and (and (and (and (and (and (and (and (and (and (and (and (and (and (and (and (and (and (and (and (and (and (and (and (and (< arg4 x955) (<= x956 arg1)) (<= (+ x957 3) arg3)) (<= x958 arg5)) (> arg1 116)) (> arg2 (- 1))) (> arg3 2)) (> arg5 0)) (> x956 116)) (> x959 2)) (> x957 (- 1))) (> x958 0)) (<= (+ arg9 2) arg1)) (<= (+ arg10 2) arg1)) (= 23 arg6)) (= 5 arg7)) (= 88 arg8)) (= 115 arg11)) (= arg1 arg1P)) (= arg2 arg2P)) (= arg3 arg3P)) (= arg4 arg4P)) (= arg5 arg5P)) (= 23 arg6P)) (= 5 arg7P)) (= 88 arg8P)) (= arg9 arg9P)) (= arg10 arg10P)) (= 115 arg11P))))
    (cfg_trans2 pc f8014_0_decode_NULL' pc1 f8014_0_decode_NULL (exists ((x975 Int) (x976 Int)) (and (and (and (and (and (and (and (and (and (and (and (and (and (and (and (and (and (and (and (and (and (and (and (and (and (and (< arg4 x975) (<= arg1P arg1)) (<= (+ arg3P 3) arg3)) (<= arg5P arg5)) (> arg1 116)) (> arg2 (- 1))) (> arg3 2)) (> arg5 0)) (> arg1P 116)) (> arg2P 2)) (> arg3P (- 1))) (> arg5P 0)) (<= (+ arg9 2) arg1)) (<= (+ arg10 2) arg1)) (< (- x976 (* 2 x975)) 2)) (>= (- x976 (* 2 x975)) 0)) (= 23 arg6)) (= 5 arg7)) (= 88 arg8)) (= 115 arg11)) (= (+ arg4 1) arg4P)) (= 23 arg6P)) (= 5 arg7P)) (= 88 arg8P)) (= arg9 arg9P)) (= arg10 arg10P)) (= 115 arg11P))))
    (cfg_trans2 pc f8014_0_decode_NULL pc1 f8014_0_decode_NULL' (exists ((x988 Int) (x989 Int) (x990 Int) (x991 Int) (x992 Int)) (and (and (and (and (and (and (and (and (and (and (and (and (and (and (and (and (and (and (and (and (and (and (and (and (and (and (and (and (< arg4 x988) (<= x989 arg1)) (<= (+ x990 3) arg3)) (<= x991 arg5)) (> arg1 116)) (> arg2 0)) (> arg3 2)) (> arg5 0)) (> x989 116)) (> x992 2)) (> x990 (- 1))) (> x991 0)) (<= (+ arg9 2) arg1)) (<= (+ arg10 2) arg1)) (= 23 arg6)) (= 5 arg7)) (= 88 arg8)) (= 115 arg11)) (= arg1 arg1P)) (= arg2 arg2P)) (= arg3 arg3P)) (= arg4 arg4P)) (= arg5 arg5P)) (= 23 arg6P)) (= 5 arg7P)) (= 88 arg8P)) (= arg9 arg9P)) (= arg10 arg10P)) (= 115 arg11P))))
    (cfg_trans2 pc f8014_0_decode_NULL' pc1 f8014_0_decode_NULL (exists ((x1008 Int) (x1009 Int)) (and (and (and (and (and (and (and (and (and (and (and (and (and (and (and (and (and (and (and (and (and (and (and (and (and (and (< arg4 x1008) (<= arg1P arg1)) (<= (+ arg3P 3) arg3)) (<= arg5P arg5)) (> arg1 116)) (> arg2 0)) (> arg3 2)) (> arg5 0)) (> arg1P 116)) (> arg2P 2)) (> arg3P (- 1))) (> arg5P 0)) (<= (+ arg9 2) arg1)) (<= (+ arg10 2) arg1)) (< (- x1009 (* 2 x1008)) 2)) (>= (- x1009 (* 2 x1008)) 0)) (= 23 arg6)) (= 5 arg7)) (= 88 arg8)) (= 115 arg11)) (= (+ arg4 1) arg4P)) (= 23 arg6P)) (= 5 arg7P)) (= 88 arg8P)) (= arg9 arg9P)) (= arg10 arg10P)) (= 115 arg11P))))
    (cfg_trans2 pc __init pc1 f1_0_main_Load true)
  )
)
